c 
c G(k,n,p) graph
c graph gen seed     : 4263
c number of vertices : 60
c max number of edges: 900
c number of classes  : 2
c edge density       : 0.100000
c edge probability   : 0.200000
c data structure     : sparse
c
c           Graph Stats
c number of vertices  : 60
c nonisolated vertices: 60
c number of edges     : 186
c edge density        : 0.105085
c max degree          : 10
c avg degree          : 6.20
c min degree          : 1
p col 60 186
e 1 47
e 1 42
e 1 38
e 1 27
e 1 16
e 1 5
e 2 50
e 2 48
e 2 36
e 2 26
e 2 25
e 3 54
e 3 49
e 3 37
e 3 30
e 3 25
e 3 8
e 3 4
e 4 27
e 4 7
e 5 56
e 5 49
e 5 48
e 5 37
e 5 32
e 5 9
e 6 56
e 6 49
e 6 31
e 6 28
e 6 25
e 6 9
e 7 56
e 7 37
e 7 36
e 7 28
e 7 20
e 7 13
e 8 47
e 8 34
e 8 27
e 8 17
e 8 16
e 9 45
e 9 42
e 9 39
e 9 27
e 9 24
e 9 11
e 10 58
e 10 53
e 10 50
e 10 46
e 11 55
e 11 53
e 11 46
e 11 44
e 12 44
e 12 25
e 12 20
e 12 18
e 13 57
e 13 34
e 13 33
e 13 27
e 14 42
e 14 41
e 14 38
e 14 19
e 14 17
e 15 44
e 15 36
e 15 30
e 16 58
e 16 54
e 16 49
e 16 48
e 16 46
e 16 31
e 16 26
e 16 25
e 17 53
e 17 46
e 17 44
e 17 36
e 17 29
e 18 57
e 18 40
e 18 34
e 18 33
e 18 22
e 19 60
e 19 37
e 19 36
e 19 32
e 19 30
e 19 23
e 19 20
e 20 45
e 20 42
e 20 38
e 20 35
e 20 21
e 21 54
e 21 53
e 21 52
e 21 31
e 21 30
e 22 54
e 22 32
e 23 42
e 23 41
e 23 34
e 23 33
e 24 48
e 24 36
e 24 29
e 24 26
e 25 59
e 25 57
e 25 33
e 25 27
e 27 58
e 27 50
e 27 37
e 27 29
e 28 57
e 28 43
e 28 40
e 29 41
e 29 38
e 30 43
e 30 40
e 30 38
e 30 34
e 31 57
e 31 42
e 31 40
e 31 33
e 32 59
e 32 47
e 32 45
e 32 43
e 32 40
e 33 53
e 33 44
e 33 37
e 34 60
e 34 55
e 35 50
e 35 44
e 36 43
e 36 38
e 37 59
e 37 43
e 37 42
e 38 60
e 38 49
e 38 48
e 38 44
e 39 52
e 39 50
e 39 48
e 39 44
e 40 54
e 40 46
e 41 58
e 41 49
e 41 46
e 42 54
e 42 53
e 42 44
e 43 56
e 43 55
e 43 50
e 45 60
e 46 47
e 47 53
e 47 48
e 50 57
e 50 51
e 52 59
e 56 59
e 56 57
e 57 58
e 58 59
